c generated by sgen3tocnf
c nLits = 639
c actual nVars = 213
c Command: sgen3tocnf 72 18 0 0 216 3 1 0 /dev/null
p cnf 216 285
-40 -70 0
-40 -163 0
-70 -163 0
-124 -22 0
-124 -208 0
-22 -208 0
-85 -58 0
-85 -76 0
-58 -76 0
-31 -175 0
-31 -169 0
-175 -169 0
-211 -184 0
-211 -115 0
-184 -115 0
-121 -136 0
-121 -148 0
-136 -148 0
-73 -202 0
-73 -88 0
-202 -88 0
-28 -46 0
-28 -172 0
-46 -172 0
-19 -109 0
-19 -193 0
-109 -193 0
-176 -173 0
-176 -59 0
-173 -59 0
-112 -20 0
-112 -187 0
-20 -187 0
-10 -7 0
-10 -74 0
-7 -74 0
-103 -29 0
-103 -97 0
-29 -97 0
-188 -214 0
-188 -16 0
-214 -16 0
-60 -170 0
-60 -166 0
-170 -166 0
-13 -86 0
-13 -130 0
-86 -130 0
-171 -160 0
-171 -55 0
-160 -55 0
-139 -77 0
-139 -145 0
-77 -145 0
-34 -56 0
-34 -67 0
-56 -67 0
-191 -100 0
-191 -91 0
-100 -91 0
-68 -131 0
-68 -151 0
-131 -151 0
-8 -178 0
-8 -61 0
-178 -61 0
-101 -209 0
-101 -203 0
-209 -203 0
-204 -92 0
-204 -23 0
-92 -23 0
-25 -152 0
-25 -118 0
-152 -118 0
-89 -64 0
-89 -142 0
-64 -142 0
-153 -1 0
-153 -21 0
-1 -21 0
-194 -199 0
-194 -125 0
-199 -125 0
-79 -90 0
-79 -113 0
-90 -113 0
-149 -69 0
-149 -102 0
-69 -102 0
-17 -106 0
-17 -157 0
-106 -157 0
-98 -127 0
-98 -35 0
-127 -35 0
-4 -18 0
-4 -82 0
-18 -82 0
-158 -62 0
-158 -80 0
-62 -80 0
-78 -150 0
-78 -104 0
-150 -104 0
-174 -140 0
-174 -11 0
-140 -11 0
-110 -14 0
-110 -41 0
-14 -41 0
-107 -192 0
-107 -205 0
-192 -205 0
-154 -143 0
-154 -181 0
-143 -181 0
-94 -133 0
-94 -186 0
-133 -186 0
-137 -95 0
-137 -197 0
-95 -197 0
-71 -114 0
-71 -134 0
-114 -134 0
-65 -5 0
-65 -96 0
-5 -96 0
-119 -122 0
-119 -87 0
-122 -87 0
-215 -167 0
-215 -179 0
-167 -179 0
-144 -146 0
-144 -72 0
-146 -72 0
-47 -83 0
-47 -138 0
-83 -138 0
-52 -195 0
-52 -128 0
-195 -128 0
-210 -53 0
-210 -111 0
-53 -111 0
-93 -75 0
-93 -177 0
-75 -177 0
-198 -26 0
-198 -141 0
-26 -141 0
-129 -37 0
-129 -212 0
-37 -212 0
-161 -12 0
-161 -48 0
-12 -48 0
-147 -99 0
-147 -15 0
-99 -15 0
-135 -116 0
-135 -123 0
-116 -123 0
-43 -164 0
-43 -2 0
-164 -2 0
-180 -32 0
-180 -30 0
-32 -30 0
-168 -42 0
-168 -155 0
-42 -155 0
-132 -44 0
-132 -49 0
-44 -49 0
-63 -156 0
-63 -216 0
-156 -216 0
-57 -206 0
-57 -45 0
-206 -45 0
-24 -50 0
-24 -27 0
-50 -27 0
-3 -120 0
-3 -38 0
-120 -38 0
-51 -105 0
-51 -200 0
-105 -200 0
-39 -126 0
-39 -6 0
-126 -6 0
-207 -36 0
-207 -66 0
-36 -66 0
-165 -81 0
-165 -54 0
-81 -54 0
-201 -213 0
-201 -108 0
-213 -108 0
-117 -182 0
-117 -33 0
-182 -33 0
-84 -189 0
-84 -162 0
-189 -162 0
-183 -159 0
-183 -9 0
-159 -9 0
3 1 2 0
4 5 6 0
8 7 9 0
10 12 11 0
13 14 15 0
17 18 16 0
19 20 21 0
24 22 23 0
25 26 27 0
28 29 30 0
31 32 33 0
34 36 35 0
39 37 38 0
40 42 41 0
43 44 45 0
47 46 48 0
51 50 49 0
52 53 54 0
57 56 55 0
60 58 59 0
63 62 61 0
65 64 66 0
68 69 67 0
71 70 72 0
73 75 74 0
78 77 76 0
79 81 80 0
84 83 82 0
85 86 87 0
89 90 88 0
93 92 91 0
94 95 96 0
98 99 97 0
101 100 102 0
103 105 104 0
107 106 108 0
110 109 111 0
112 114 113 0
117 116 115 0
119 120 118 0
121 122 123 0
124 126 125 0
129 127 128 0
132 131 130 0
135 133 134 0
137 136 138 0
139 140 141 0
144 143 142 0
147 146 145 0
149 150 148 0
153 152 151 0
154 156 155 0
158 159 157 0
161 160 162 0
165 164 163 0
168 167 166 0
171 170 169 0
174 173 172 0
176 175 177 0
180 178 179 0
183 182 181 0
184 186 0
188 189 187 0
191 192 0
194 195 193 0
198 197 0
201 199 200 0
204 202 203 0
207 206 205 0
210 209 208 0
211 213 212 0
215 214 216 0
